200
1000
627
621
621
613
610
604
604
594
592
582
575
575
575
574
572
571
571
570
564
564
563
560
557
556
556
548
547
540
532
523
523
519
518
517
517
514
514
510
505
503
501
494
492
487
480
479
477
477
473
473
472
467
464
464
459
455
454
452
451
449
449
447
445
440
438
430
429
427
424
420
420
417
415
411
409
408
407
404
401
390
385
378
369
361
361
359
356
352
347
343
343
341
338
337
335
334
322
321
317
316
308
307
305
301
301
289
289
284
283
277
277
271
270
269
269
267
267
267
259
256
253
249
247
245
242
242
237
233
233
229
227
224
219
219
217
215
215
209
208
208
202
199
199
198
194
193
179
176
172
165
160
159
158
148
145
139
139
139
138
137
137
133
122
120
120
115
114
112
110
109
109
108
102
101
99
92
86
86
85
80
80
77
76
74
73
70
70
67
64
63
60
58
54
54
46
41
37
36
35
35
